40
   100    25    90    60   100    77    16    53    90    21    25    82    23    71    71    74    81    93    85    60    72     5    80    72    34    81    42    47    32    45    41    25    59    77    19    48    37     7     2    62
     4     5     6     1    10     6     8     2    10     2     8     8     8     8     8    10     1     3     2     5     9     5     1     5     9     6     5     2     5     4     2     8     1     3     9     7    10     3    10     2
  1009  1009  1062   897  1643  1700  1012  1627  1509  1341  1380  1530  1392  1639  1415  1246  1002  1617   940  1067  1506  1738  1359  1345  1528  1473   999  1593  1422  1677  1351   891  1015  1285  1535  1349  1262  1433  1055  1542
